p cnf 66 315
4 7 11 16 22 29 37 46 56 67 79 92 106 121 137 154 172 191 211 232 254 277 0
8 12 17 23 30 38 47 57 68 80 93 107 122 138 155 173 192 212 233 255 278 302 0
13 18 24 31 39 48 58 69 81 94 108 123 139 156 174 193 213 234 256 279 303 328 0
-4 -8 0
-7 -12 0
-11 -17 0
-16 -23 0
-22 -30 0
-29 -38 0
-37 -47 0
-46 -57 0
-56 -68 0
-67 -80 0
-79 -93 0
-92 -107 0
-106 -122 0
-121 -138 0
-137 -155 0
-154 -173 0
-172 -192 0
-191 -212 0
-211 -233 0
-232 -255 0
-254 -278 0
-277 -302 0
-4 -13 0
-7 -18 0
-11 -24 0
-16 -31 0
-22 -39 0
-29 -48 0
-37 -58 0
-46 -69 0
-56 -81 0
-67 -94 0
-79 -108 0
-92 -123 0
-106 -139 0
-121 -156 0
-137 -174 0
-154 -193 0
-172 -213 0
-191 -234 0
-211 -256 0
-232 -279 0
-254 -303 0
-277 -328 0
-8 -13 0
-12 -18 0
-17 -24 0
-23 -31 0
-30 -39 0
-38 -48 0
-47 -58 0
-57 -69 0
-68 -81 0
-80 -94 0
-93 -108 0
-107 -123 0
-122 -139 0
-138 -156 0
-155 -174 0
-173 -193 0
-192 -213 0
-212 -234 0
-233 -256 0
-255 -279 0
-278 -303 0
-302 -328 0
-4 -93 0
-4 -122 0
-4 -138 0
-4 -173 0
-4 -192 0
-4 -302 0
-7 -17 0
-7 -57 0
-7 -68 0
-11 -30 0
-11 -47 0
-11 -80 0
-11 -138 0
-11 -233 0
-16 -30 0
-16 -38 0
-16 -68 0
-16 -192 0
-16 -278 0
-22 -68 0
-22 -192 0
-22 -212 0
-22 -233 0
-22 -302 0
-29 -57 0
-29 -80 0
-29 -155 0
-37 -57 0
-37 -138 0
-46 -233 0
-56 -80 0
-56 -138 0
-56 -233 0
-67 -122 0
-67 -192 0
-67 -255 0
-79 -122 0
-121 -212 0
-121 -255 0
-137 -278 0
-172 -233 0
-4 -108 0
-4 -139 0
-4 -156 0
-4 -193 0
-4 -213 0
-4 -328 0
-7 -24 0
-7 -69 0
-7 -81 0
-11 -39 0
-11 -58 0
-11 -94 0
-11 -156 0
-11 -256 0
-16 -39 0
-16 -48 0
-16 -81 0
-16 -213 0
-16 -303 0
-22 -81 0
-22 -213 0
-22 -234 0
-22 -256 0
-22 -328 0
-29 -69 0
-29 -94 0
-29 -174 0
-37 -69 0
-37 -156 0
-46 -256 0
-56 -94 0
-56 -156 0
-56 -256 0
-67 -139 0
-67 -213 0
-67 -279 0
-79 -139 0
-121 -234 0
-121 -279 0
-137 -303 0
-172 -256 0
-8 -79 0
-8 -106 0
-8 -121 0
-8 -154 0
-8 -172 0
-8 -277 0
-12 -11 0
-12 -46 0
-12 -56 0
-17 -22 0
-17 -37 0
-17 -67 0
-17 -121 0
-17 -211 0
-23 -22 0
-23 -29 0
-23 -56 0
-23 -172 0
-23 -254 0
-30 -56 0
-30 -172 0
-30 -191 0
-30 -211 0
-30 -277 0
-38 -46 0
-38 -67 0
-38 -137 0
-47 -46 0
-47 -121 0
-57 -211 0
-68 -67 0
-68 -121 0
-68 -211 0
-80 -106 0
-80 -172 0
-80 -232 0
-93 -106 0
-138 -191 0
-138 -232 0
-155 -254 0
-192 -211 0
-8 -108 0
-8 -139 0
-8 -156 0
-8 -193 0
-8 -213 0
-8 -328 0
-12 -24 0
-12 -69 0
-12 -81 0
-17 -39 0
-17 -58 0
-17 -94 0
-17 -156 0
-17 -256 0
-23 -39 0
-23 -48 0
-23 -81 0
-23 -213 0
-23 -303 0
-30 -81 0
-30 -213 0
-30 -234 0
-30 -256 0
-30 -328 0
-38 -69 0
-38 -94 0
-38 -174 0
-47 -69 0
-47 -156 0
-57 -256 0
-68 -94 0
-68 -156 0
-68 -256 0
-80 -139 0
-80 -213 0
-80 -279 0
-93 -139 0
-138 -234 0
-138 -279 0
-155 -303 0
-192 -256 0
-13 -79 0
-13 -106 0
-13 -121 0
-13 -154 0
-13 -172 0
-13 -277 0
-18 -11 0
-18 -46 0
-18 -56 0
-24 -22 0
-24 -37 0
-24 -67 0
-24 -121 0
-24 -211 0
-31 -22 0
-31 -29 0
-31 -56 0
-31 -172 0
-31 -254 0
-39 -56 0
-39 -172 0
-39 -191 0
-39 -211 0
-39 -277 0
-48 -46 0
-48 -67 0
-48 -137 0
-58 -46 0
-58 -121 0
-69 -211 0
-81 -67 0
-81 -121 0
-81 -211 0
-94 -106 0
-94 -172 0
-94 -232 0
-108 -106 0
-156 -191 0
-156 -232 0
-174 -254 0
-213 -211 0
-13 -93 0
-13 -122 0
-13 -138 0
-13 -173 0
-13 -192 0
-13 -302 0
-18 -17 0
-18 -57 0
-18 -68 0
-24 -30 0
-24 -47 0
-24 -80 0
-24 -138 0
-24 -233 0
-31 -30 0
-31 -38 0
-31 -68 0
-31 -192 0
-31 -278 0
-39 -68 0
-39 -192 0
-39 -212 0
-39 -233 0
-39 -302 0
-48 -57 0
-48 -80 0
-48 -155 0
-58 -57 0
-58 -138 0
-69 -233 0
-81 -80 0
-81 -138 0
-81 -233 0
-94 -122 0
-94 -192 0
-94 -255 0
-108 -122 0
-156 -212 0
-156 -255 0
-174 -278 0
-213 -233 0
